143
100
10
27
48
28
42
36
4
25
6
23
12
23
5
26
49
12
35
25
5
6
10
11
37
13
14
43
14
15
10
23
18
6
21
12
50
19
23
33
32
19
22
29
10
45
33
25
10
21
24
9
31
26
7
7
35
2
6
19
2
36
28
14
9
5
29
33
19
42
9
10
4
1
8
45
25
29
24
22
8
34
28
10
9
1
8
40
25
25
16
48
36
11
8
5
28
12
13
15
2
24
13
40
10
46
24
34
10
3
31
29
1
39
36
9
50
1
1
24
49
7
35
49
13
12
21
11
16
38
43
49
1
30
6
23
6
9
3
8
36
31
32
18
22
